Reading model...
...model read.
creating competitive generators file...
...competitive generators recorded.
Loading data...
.. real-time data read.
Compiling instance...
...instance created.
Creating Offer Mitigation (model will solve as dispatch if TRUE)...
...storage offer mitigation file created
Converting model to MPEC...
...converted
NOTE: initial MIP solve with only storage competitive to get feasible solution
Solving...

Welcome to IBM(R) ILOG(R) CPLEX(R) Interactive Optimizer 12.10.0.0
  with Simplex, Mixed Integer & Barrier Optimizers
5725-A06 5725-A29 5724-Y48 5724-Y49 5724-Y54 5724-Y55 5655-Y21
Copyright IBM Corp. 1988, 2019.  All Rights Reserved.

Type 'help' for a list of available commands.
Type 'help' followed by a command name for more
information on commands.

CPLEX> Logfile 'cplex.log' closed.
Logfile 'C:\Users\wenmi\Desktop\competitiveMPEC\logs\tmp50qsqx5w.cplex.log' open.
CPLEX> New value for parallel optimization mode: -1
CPLEX> New value for mixed integer optimality gap tolerance: 0.05
CPLEX> New value for deterministic time limit in ticks: 100000
CPLEX> Problem 'C:\Users\wenmi\Desktop\competitiveMPEC\logs\tmp511jlbp8.pyomo.lp' read.
Read time = 0.31 sec. (27.41 ticks)
CPLEX> Problem name         : C:\Users\wenmi\Desktop\competitiveMPEC\logs\tmp511jlbp8.pyomo.lp
Objective sense      : Maximize
Variables            :  107779  [Nneg: 1,  Box: 44054,  Free: 8928,
                                 Binary: 54796]
Objective nonzeros   :   17474
Linear constraints   :  246995  [Less: 82866,  Greater: 118424,  Equal: 45705]
  Nonzeros           :  580925
  RHS nonzeros       :  134591

Variables            : Min LB: -5000.000        Max UB: 1000000.       
Objective nonzeros   : Min   : 0.02500000       Max   : 180.0000       
Linear constraints   :
  Nonzeros           : Min   : 0.02500000       Max   : 1000000.       
  RHS nonzeros       : Min   : 0.02500000       Max   : 1000000.       
CPLEX> Version identifier: 12.10.0.0 | 2019-11-26 | 843d4de2ae
CPXPARAM_Parallel                                -1
CPXPARAM_DetTimeLimit                            100000
CPXPARAM_MIP_Tolerances_MIPGap                   0.050000000000000003
Tried aggregator 3 times.
MIP Presolve eliminated 181881 rows and 41553 columns.
MIP Presolve added 6096 rows and 0 columns.
MIP Presolve modified 48832 coefficients.
Aggregator did 25860 substitutions.
Reduced MIP has 45350 rows, 38734 columns, and 125718 nonzeros.
Reduced MIP has 15214 binaries, 0 generals, 0 SOSs, and 0 indicators.
Presolve time = 0.33 sec. (336.13 ticks)
Probing fixed 861 vars, tightened 9591 bounds.
Probing time = 0.08 sec. (15.47 ticks)
Tried aggregator 2 times.
Detecting symmetries...
MIP Presolve eliminated 1914 rows and 1722 columns.
MIP Presolve modified 5424 coefficients.
Aggregator did 48 substitutions.
Reduced MIP has 43388 rows, 36964 columns, and 120024 nonzeros.
Reduced MIP has 14353 binaries, 0 generals, 0 SOSs, and 0 indicators.
Presolve time = 0.13 sec. (206.51 ticks)
Probing fixed 0 vars, tightened 621 bounds.
Probing time = 0.19 sec. (21.50 ticks)
Clique table members: 86006.
MIP emphasis: balance optimality and feasibility.
MIP search method: dynamic search.
Parallel mode: opportunistic, using up to 16 threads.
Root relaxation solution time = 0.61 sec. (1643.55 ticks)

        Nodes                                         Cuts/
   Node  Left     Objective  IInf  Best Integer    Best Bound    ItCnt     Gap

      0     0        0.0000   372                      0.0000    10687         
*     0+    0                            0.0000        0.0000             0.00%
      0     0        cutoff              0.0000        0.0000    10687    0.00%
Elapsed time = 1.69 sec. (2652.40 ticks, tree = 0.01 MB, solutions = 1)

Root node processing (before b&c):
  Real time             =    1.69 sec. (2656.19 ticks)
Parallel b&c, 16 threads:
  Real time             =    0.00 sec. (0.00 ticks)
  Sync time (average)   =    0.00 sec.
  Wait time (average)   =    0.00 sec.
                          ------------
Total (root+branch&cut) =    1.69 sec. (2656.19 ticks)

Solution pool: 1 solution saved.

MIP - Integer optimal solution:  Objective =  3.7193785829e-09
Solution time =    1.72 sec.  Iterations = 10687  Nodes = 0
Deterministic time = 2656.50 ticks  (1546.27 ticks/sec)

CPLEX> Incumbent solution written to file 'C:\Users\wenmi\Desktop\competitiveMPEC\logs\tmphkfz_1yt.cplex.sol'.
CPLEX> NOTE: no warmstart specified for MIP iteration, default behavior is true
NOTE: resolving with all competitive generators using storage-only solution to warmstart
Solving...

Welcome to IBM(R) ILOG(R) CPLEX(R) Interactive Optimizer 12.10.0.0
  with Simplex, Mixed Integer & Barrier Optimizers
5725-A06 5725-A29 5724-Y48 5724-Y49 5724-Y54 5724-Y55 5655-Y21
Copyright IBM Corp. 1988, 2019.  All Rights Reserved.

Type 'help' for a list of available commands.
Type 'help' followed by a command name for more
information on commands.

CPLEX> Logfile 'cplex.log' closed.
Logfile 'C:\Users\wenmi\Desktop\competitiveMPEC\logs\tmp17o2ko0g.cplex.log' open.
CPLEX> New value for parallel optimization mode: -1
CPLEX> New value for mixed integer optimality gap tolerance: 0.05
CPLEX> New value for deterministic time limit in ticks: 100000
CPLEX> Problem 'C:\Users\wenmi\Desktop\competitiveMPEC\logs\tmpunsdi29x.pyomo.lp' read.
Read time = 0.30 sec. (27.45 ticks)
CPLEX> MIP start file 'C:\Users\wenmi\Desktop\competitiveMPEC\logs\tmp79d6otnd.cplex.mst' read.
CPLEX> Problem name         : C:\Users\wenmi\Desktop\competitiveMPEC\logs\tmpunsdi29x.pyomo.lp
Objective sense      : Maximize
Variables            :  109219  [Nneg: 1,  Box: 45494,  Free: 8928,
                                 Binary: 54796]
Objective nonzeros   :   18866
Linear constraints   :  246995  [Less: 82866,  Greater: 118424,  Equal: 45705]
  Nonzeros           :  580925
  RHS nonzeros       :  134591

Variables            : Min LB: -5000.000        Max UB: 1000000.       
Objective nonzeros   : Min   : 0.02500000       Max   : 180.0000       
Linear constraints   :
  Nonzeros           : Min   : 0.02500000       Max   : 1000000.       
  RHS nonzeros       : Min   : 0.02500000       Max   : 1000000.       
CPLEX> Version identifier: 12.10.0.0 | 2019-11-26 | 843d4de2ae
CPXPARAM_Parallel                                -1
CPXPARAM_DetTimeLimit                            100000
CPXPARAM_MIP_Tolerances_MIPGap                   0.050000000000000003
Warning:  No solution found from 1 MIP starts.
Retaining values of one MIP start for possible repair.
Tried aggregator 3 times.
MIP Presolve eliminated 181881 rows and 42993 columns.
MIP Presolve added 6096 rows and 0 columns.
MIP Presolve modified 48832 coefficients.
Aggregator did 25860 substitutions.
Reduced MIP has 45350 rows, 38734 columns, and 125718 nonzeros.
Reduced MIP has 15214 binaries, 0 generals, 0 SOSs, and 0 indicators.
Presolve time = 0.34 sec. (336.87 ticks)
Probing fixed 861 vars, tightened 9591 bounds.
Probing time = 0.08 sec. (15.47 ticks)
Tried aggregator 2 times.
Detecting symmetries...
MIP Presolve eliminated 1914 rows and 1722 columns.
MIP Presolve modified 5424 coefficients.
Aggregator did 48 substitutions.
Reduced MIP has 43388 rows, 36964 columns, and 120024 nonzeros.
Reduced MIP has 14353 binaries, 0 generals, 0 SOSs, and 0 indicators.
Presolve time = 0.13 sec. (206.54 ticks)
Probing fixed 0 vars, tightened 621 bounds.
Probing time = 0.17 sec. (21.50 ticks)
Clique table members: 86006.
MIP emphasis: balance optimality and feasibility.
MIP search method: dynamic search.
Parallel mode: opportunistic, using up to 16 threads.
Root relaxation solution time = 0.59 sec. (1645.28 ticks)

        Nodes                                         Cuts/
   Node  Left     Objective  IInf  Best Integer    Best Bound    ItCnt     Gap

      0     0     1441.9102   395                   1441.9102    10608         
*     0+    0                         1439.6793     1441.9102             0.15%

Flow cuts applied:  12

Root node processing (before b&c):
  Real time             =    2.41 sec. (3648.16 ticks)
Parallel b&c, 16 threads:
  Real time             =    0.00 sec. (0.00 ticks)
  Sync time (average)   =    0.00 sec.
  Wait time (average)   =    0.00 sec.
                          ------------
Total (root+branch&cut) =    2.41 sec. (3648.16 ticks)

Solution pool: 1 solution saved.

MIP - Integer optimal, tolerance (0.05/1e-06):  Objective =  1.4396792863e+03
Current MIP best bound =  1.4419102447e+03 (gap = 2.23096, 0.15%)
Solution time =    2.42 sec.  Iterations = 10610  Nodes = 0 (1)
Deterministic time = 3648.47 ticks  (1506.39 ticks/sec)

CPLEX> Incumbent solution written to file 'C:\Users\wenmi\Desktop\competitiveMPEC\logs\tmpdegfaalj.cplex.sol'.
CPLEX> Exporting results... 
